15
1 0 9
2 0 8
2 1 1
3 0 7
3 1 1
3 2 2
4 0 7
4 1 4
4 2 1
4 3 8
5 0 9
5 1 5
5 2 4
5 3 7
5 4 3
6 0 1
6 1 2
6 2 5
6 3 4
6 4 2
6 5 6
7 0 1
7 1 2
7 2 9
7 3 2
7 4 9
7 5 8
7 6 4
8 0 1
8 1 8
8 2 8
8 3 1
8 4 2
8 5 2
8 6 8
8 7 7
9 0 1
9 1 3
9 2 3
9 3 6
9 4 8
9 5 9
9 6 8
9 7 7
9 8 1
10 0 5
10 1 4
10 2 3
10 3 3
10 4 4
10 5 2
10 6 2
10 7 7
10 8 1
10 9 3
11 0 2
11 1 4
11 2 7
11 3 2
11 4 7
11 5 2
11 6 5
11 7 4
11 8 6
11 9 6
11 10 5
12 0 2
12 1 4
12 2 5
12 3 7
12 4 5
12 5 2
12 6 4
12 7 8
12 8 4
12 9 8
12 10 5
12 11 4
13 0 4
13 1 7
13 2 6
13 3 5
13 4 7
13 5 6
13 6 6
13 7 2
13 8 6
13 9 9
13 10 1
13 11 3
13 12 7
14 0 8
14 1 3
14 2 3
14 3 4
14 4 5
14 5 8
14 6 7
14 7 6
14 8 8
14 9 5
14 10 6
14 11 6
14 12 6
14 13 5
